VALUE 2900516
1 219
7 8
8 118
1 9
9 10
13 32
17 185
17 18
22 23
23 24
1 24
27 28
9 28
31 212
31 32
35 200
35 36
37 38
38 39
39 40
40 215
44 201
48 175
52 154
53 54
54 55
55 56
52 56
58 178
64 122
64 68
69 183
74 177
75 76
76 77
77 163
76 80
80 84
87 91
87 88
91 92
92 93
93 94
75 94
95 114
95 99
87 106
91 110
110 114
99 118
53 122
48 154
163 164
164 169
169 170
69 170
44 175
177 178
178 186
183 187
36 185
183 186
187 192
192 194
37 194
31 200
201 210
40 210
27 212
215 216
22 216
7 220
10 221
13 222
18 223
23 224
27 225
31 226
36 227
39 228
44 229
48 230
52 231
56 232
58 233
64 234
68 235
69 236
74 237
76 238
80 239
84 240
88 241
94 242
95 243
99 244
106 245
110 246
114 247

